NAME : tsp_100_sol.txt
COMMENT : OR-Tools Guided Local Search
TYPE : TOUR
DIMENSION : 50
COST : 5594
STATUS : ROUTING_SUCCESS
GAP : 0.00% (Reference Solution)
TOUR_SECTION
1
43
37
23
25
47
13
19
10
50
34
20
26
38
33
30
5
3
35
46
14
27
48
12
15
44
36
49
6
22
42
8
39
17
31
2
4
40
18
24
16
7
9
41
45
11
29
28
32
21
-1
